certificates/rado_a12_c28_N41.cnf
c Rad2 upper bound instance: x1 + 12*x2 - x3 = 28, interval [1,41]
p cnf 41 250
1 3 9 0
-1 -3 -9 0
1 4 21 0
-1 -4 -21 0
1 5 33 0
-1 -5 -33 0
2 3 10 0
-2 -3 -10 0
2 4 22 0
-2 -4 -22 0
2 5 34 0
-2 -5 -34 0
3 11 0
-3 -11 0
3 4 23 0
-3 -4 -23 0
3 5 35 0
-3 -5 -35 0
3 4 12 0
-3 -4 -12 0
4 24 0
-4 -24 0
4 5 36 0
-4 -5 -36 0
1 2 5 0
-1 -2 -5 0
3 5 13 0
-3 -5 -13 0
4 5 25 0
-4 -5 -25 0
5 37 0
-5 -37 0
2 6 0
-2 -6 0
3 6 14 0
-3 -6 -14 0
4 6 26 0
-4 -6 -26 0
5 6 38 0
-5 -6 -38 0
2 3 7 0
-2 -3 -7 0
3 7 15 0
-3 -7 -15 0
4 7 27 0
-4 -7 -27 0
5 7 39 0
-5 -7 -39 0
2 4 8 0
-2 -4 -8 0
3 8 16 0
-3 -8 -16 0
4 8 28 0
-4 -8 -28 0
5 8 40 0
-5 -8 -40 0
2 5 9 0
-2 -5 -9 0
3 9 17 0
-3 -9 -17 0
4 9 29 0
-4 -9 -29 0
5 9 41 0
-5 -9 -41 0
2 6 10 0
-2 -6 -10 0
3 10 18 0
-3 -10 -18 0
4 10 30 0
-4 -10 -30 0
2 7 11 0
-2 -7 -11 0
3 11 19 0
-3 -11 -19 0
4 11 31 0
-4 -11 -31 0
2 8 12 0
-2 -8 -12 0
3 12 20 0
-3 -12 -20 0
4 12 32 0
-4 -12 -32 0
2 9 13 0
-2 -9 -13 0
3 13 21 0
-3 -13 -21 0
4 13 33 0
-4 -13 -33 0
2 10 14 0
-2 -10 -14 0
3 14 22 0
-3 -14 -22 0
4 14 34 0
-4 -14 -34 0
2 11 15 0
-2 -11 -15 0
3 15 23 0
-3 -15 -23 0
4 15 35 0
-4 -15 -35 0
2 12 16 0
-2 -12 -16 0
3 16 24 0
-3 -16 -24 0
4 16 36 0
-4 -16 -36 0
1 17 0
-1 -17 0
2 13 17 0
-2 -13 -17 0
3 17 25 0
-3 -17 -25 0
4 17 37 0
-4 -17 -37 0
1 2 18 0
-1 -2 -18 0
2 14 18 0
-2 -14 -18 0
3 18 26 0
-3 -18 -26 0
4 18 38 0
-4 -18 -38 0
1 3 19 0
-1 -3 -19 0
2 15 19 0
-2 -15 -19 0
3 19 27 0
-3 -19 -27 0
4 19 39 0
-4 -19 -39 0
1 4 20 0
-1 -4 -20 0
2 16 20 0
-2 -16 -20 0
3 20 28 0
-3 -20 -28 0
4 20 40 0
-4 -20 -40 0
1 5 21 0
-1 -5 -21 0
2 17 21 0
-2 -17 -21 0
3 21 29 0
-3 -21 -29 0
4 21 41 0
-4 -21 -41 0
1 6 22 0
-1 -6 -22 0
2 18 22 0
-2 -18 -22 0
3 22 30 0
-3 -22 -30 0
1 7 23 0
-1 -7 -23 0
2 19 23 0
-2 -19 -23 0
3 23 31 0
-3 -23 -31 0
1 8 24 0
-1 -8 -24 0
2 20 24 0
-2 -20 -24 0
3 24 32 0
-3 -24 -32 0
1 9 25 0
-1 -9 -25 0
2 21 25 0
-2 -21 -25 0
3 25 33 0
-3 -25 -33 0
1 10 26 0
-1 -10 -26 0
2 22 26 0
-2 -22 -26 0
3 26 34 0
-3 -26 -34 0
1 11 27 0
-1 -11 -27 0
2 23 27 0
-2 -23 -27 0
3 27 35 0
-3 -27 -35 0
1 12 28 0
-1 -12 -28 0
2 24 28 0
-2 -24 -28 0
3 28 36 0
-3 -28 -36 0
1 13 29 0
-1 -13 -29 0
2 25 29 0
-2 -25 -29 0
3 29 37 0
-3 -29 -37 0
1 14 30 0
-1 -14 -30 0
2 26 30 0
-2 -26 -30 0
3 30 38 0
-3 -30 -38 0
1 15 31 0
-1 -15 -31 0
2 27 31 0
-2 -27 -31 0
3 31 39 0
-3 -31 -39 0
1 16 32 0
-1 -16 -32 0
2 28 32 0
-2 -28 -32 0
3 32 40 0
-3 -32 -40 0
1 17 33 0
-1 -17 -33 0
2 29 33 0
-2 -29 -33 0
3 33 41 0
-3 -33 -41 0
1 18 34 0
-1 -18 -34 0
2 30 34 0
-2 -30 -34 0
1 19 35 0
-1 -19 -35 0
2 31 35 0
-2 -31 -35 0
1 20 36 0
-1 -20 -36 0
2 32 36 0
-2 -32 -36 0
1 21 37 0
-1 -21 -37 0
2 33 37 0
-2 -33 -37 0
1 22 38 0
-1 -22 -38 0
2 34 38 0
-2 -34 -38 0
1 23 39 0
-1 -23 -39 0
2 35 39 0
-2 -35 -39 0
1 24 40 0
-1 -24 -40 0
2 36 40 0
-2 -36 -40 0
1 25 41 0
-1 -25 -41 0
2 37 41 0
-2 -37 -41 0
