certificates/rado_a12_c28_N41.drat
-37 -38 -41 0
-38 -41 0
d -37 -38 -41 0
-2 37 0
37 -39 -41 0
-37 -41 0
-41 0
37 0
-5 0
9 0
33 0
-2 0
1 0
6 0
34 0
-17 0
-21 0
-22 0
-18 0
-25 0
-3 0
13 0
0
